NAME : portcgen-20-70
COMMENT : portcgen N=20, seed=70
TYPE : TSP
DIMENSION : 20
EDGE_WEIGHT_TYPE : EUC_2D
NODE_COORD_SECTION
1 74 63
2 88 69
3 86 73
4 68 99
5 61 79
6 73 79
7 87 82
8 68 72
9 76 117
10 76 69
11 61 79
12 76 127
13 68 79
14 76 79
15 84 102
16 66 89
17 53 91
18 90 98
19 68 90
20 88 76
